c Reduced graph for GEOM30 generated by Cyril Grelier
p edge 30 50
e 1 2
e 1 7
e 1 9
e 1 11
e 1 13
e 1 14
e 2 9
e 2 11
e 2 12
e 2 19
e 3 4
e 3 5
e 3 6
e 3 8
e 3 10
e 4 5
e 4 6
e 4 8
e 4 10
e 5 6
e 5 8
e 5 10
e 6 8
e 6 10
e 7 13
e 7 14
e 7 24
e 7 30
e 8 10
e 9 11
e 9 12
e 9 14
e 11 12
e 11 13
e 12 19
e 13 24
e 14 21
e 15 16
e 15 17
e 15 18
e 16 18
e 16 23
e 17 20
e 17 22
e 18 23
e 20 22
e 21 25
e 25 26
e 26 29
e 27 28
